c description: Tseitin formula on Random 4-regular graph of 29 vertices, with odd charge
c generator: CNFgen (0.9.2)
c copyright: (C) 2012-2022 Massimo Lauria <massimo.lauria@uniroma1.it>
c url: https://massimolauria.net/cnfgen
c command line: cnfgen tseitin 29
c
p cnf 58 232
1 2 3 -4 0
1 2 -3 4 0
1 -2 3 4 0
1 -2 -3 -4 0
-1 2 3 4 0
-1 2 -3 -4 0
-1 -2 3 -4 0
-1 -2 -3 4 0
5 6 7 8 0
5 6 -7 -8 0
5 -6 7 -8 0
5 -6 -7 8 0
-5 6 7 -8 0
-5 6 -7 8 0
-5 -6 7 8 0
-5 -6 -7 -8 0
5 9 10 11 0
5 9 -10 -11 0
5 -9 10 -11 0
5 -9 -10 11 0
-5 9 10 -11 0
-5 9 -10 11 0
-5 -9 10 11 0
-5 -9 -10 -11 0
12 13 14 -15 0
12 13 -14 15 0
12 -13 14 15 0
12 -13 -14 -15 0
-12 13 14 15 0
-12 13 -14 -15 0
-12 -13 14 -15 0
-12 -13 -14 15 0
9 16 17 -18 0
9 16 -17 18 0
9 -16 17 18 0
9 -16 -17 -18 0
-9 16 17 18 0
-9 16 -17 -18 0
-9 -16 17 -18 0
-9 -16 -17 18 0
6 19 20 21 0
6 19 -20 -21 0
6 -19 20 -21 0
6 -19 -20 21 0
-6 19 20 -21 0
-6 19 -20 21 0
-6 -19 20 21 0
-6 -19 -20 -21 0
12 22 23 -24 0
12 22 -23 24 0
12 -22 23 24 0
12 -22 -23 -24 0
-12 22 23 24 0
-12 22 -23 -24 0
-12 -22 23 -24 0
-12 -22 -23 24 0
13 19 25 26 0
13 19 -25 -26 0
13 -19 25 -26 0
13 -19 -25 26 0
-13 19 25 -26 0
-13 19 -25 26 0
-13 -19 25 26 0
-13 -19 -25 -26 0
16 27 28 29 0
16 27 -28 -29 0
16 -27 28 -29 0
16 -27 -28 29 0
-16 27 28 -29 0
-16 27 -28 29 0
-16 -27 28 29 0
-16 -27 -28 -29 0
1 25 30 31 0
1 25 -30 -31 0
1 -25 30 -31 0
1 -25 -30 31 0
-1 25 30 -31 0
-1 25 -30 31 0
-1 -25 30 31 0
-1 -25 -30 -31 0
20 32 33 34 0
20 32 -33 -34 0
20 -32 33 -34 0
20 -32 -33 34 0
-20 32 33 -34 0
-20 32 -33 34 0
-20 -32 33 34 0
-20 -32 -33 -34 0
27 35 36 -37 0
27 35 -36 37 0
27 -35 36 37 0
27 -35 -36 -37 0
-27 35 36 37 0
-27 35 -36 -37 0
-27 -35 36 -37 0
-27 -35 -36 37 0
2 38 39 40 0
2 38 -39 -40 0
2 -38 39 -40 0
2 -38 -39 40 0
-2 38 39 -40 0
-2 38 -39 40 0
-2 -38 39 40 0
-2 -38 -39 -40 0
21 22 41 -42 0
21 22 -41 42 0
21 -22 41 42 0
21 -22 -41 -42 0
-21 22 41 42 0
-21 22 -41 -42 0
-21 -22 41 -42 0
-21 -22 -41 42 0
30 43 44 -45 0
30 43 -44 45 0
30 -43 44 45 0
30 -43 -44 -45 0
-30 43 44 45 0
-30 43 -44 -45 0
-30 -43 44 -45 0
-30 -43 -44 45 0
3 31 41 -46 0
3 31 -41 46 0
3 -31 41 46 0
3 -31 -41 -46 0
-3 31 41 46 0
-3 31 -41 -46 0
-3 -31 41 -46 0
-3 -31 -41 46 0
23 43 47 48 0
23 43 -47 -48 0
23 -43 47 -48 0
23 -43 -47 48 0
-23 43 47 -48 0
-23 43 -47 48 0
-23 -43 47 48 0
-23 -43 -47 -48 0
7 26 49 -50 0
7 26 -49 50 0
7 -26 49 50 0
7 -26 -49 -50 0
-7 26 49 50 0
-7 26 -49 -50 0
-7 -26 49 -50 0
-7 -26 -49 50 0
10 32 44 51 0
10 32 -44 -51 0
10 -32 44 -51 0
10 -32 -44 51 0
-10 32 44 -51 0
-10 32 -44 51 0
-10 -32 44 51 0
-10 -32 -44 -51 0
35 38 51 52 0
35 38 -51 -52 0
35 -38 51 -52 0
35 -38 -51 52 0
-35 38 51 -52 0
-35 38 -51 52 0
-35 -38 51 52 0
-35 -38 -51 -52 0
17 49 53 54 0
17 49 -53 -54 0
17 -49 53 -54 0
17 -49 -53 54 0
-17 49 53 -54 0
-17 49 -53 54 0
-17 -49 53 54 0
-17 -49 -53 -54 0
8 28 50 -53 0
8 28 -50 53 0
8 -28 50 53 0
8 -28 -50 -53 0
-8 28 50 53 0
-8 28 -50 -53 0
-8 -28 50 -53 0
-8 -28 -50 53 0
33 36 42 -55 0
33 36 -42 55 0
33 -36 42 55 0
33 -36 -42 -55 0
-33 36 42 55 0
-33 36 -42 -55 0
-33 -36 42 -55 0
-33 -36 -42 55 0
4 14 52 56 0
4 14 -52 -56 0
4 -14 52 -56 0
4 -14 -52 56 0
-4 14 52 -56 0
-4 14 -52 56 0
-4 -14 52 56 0
-4 -14 -52 -56 0
18 39 46 -54 0
18 39 -46 54 0
18 -39 46 54 0
18 -39 -46 -54 0
-18 39 46 54 0
-18 39 -46 -54 0
-18 -39 46 -54 0
-18 -39 -46 54 0
11 24 40 55 0
11 24 -40 -55 0
11 -24 40 -55 0
11 -24 -40 55 0
-11 24 40 -55 0
-11 24 -40 55 0
-11 -24 40 55 0
-11 -24 -40 -55 0
34 56 57 -58 0
34 56 -57 58 0
34 -56 57 58 0
34 -56 -57 -58 0
-34 56 57 58 0
-34 56 -57 -58 0
-34 -56 57 -58 0
-34 -56 -57 58 0
29 37 47 57 0
29 37 -47 -57 0
29 -37 47 -57 0
29 -37 -47 57 0
-29 37 47 -57 0
-29 37 -47 57 0
-29 -37 47 57 0
-29 -37 -47 -57 0
15 45 48 -58 0
15 45 -48 58 0
15 -45 48 58 0
15 -45 -48 -58 0
-15 45 48 58 0
-15 45 -48 -58 0
-15 -45 48 -58 0
-15 -45 -48 58 0
